Route #1: 5 13 14 27 44 23
Route #2: 56 50 39 25 6 21 54 42 46 3 38 60 31 16 4 11
Route #3: 37 28 57 48 22 30
Route #4: 12 32 53 29 10 45 61
Route #5: 1 35 2 19 17 49 36
Route #6: 40 52 59 7 26 9 41 47 55
Route #7: 20 34 43 33
Route #8: 51 18 58
Route #9: 24 8 15
cost 2026.3903299904575
